(set-logic ALL)
(declare-fun var0 () String)
(assert (str.in_re var0 (re.++ (re.union (re.union (str.to_re "00") (str.to_re "11")) (re.union (str.to_re "2") (str.to_re "333"))) (re.++ (re.union (re.union (str.to_re "444") (str.to_re "555")) (re.union (str.to_re "666") (str.to_re "77"))) (re.++ (re.* (re.union (str.to_re "888") (str.to_re "999"))) (re.++ (re.+ (re.+ (str.to_re "a"))) (re.++ (re.* (re.union (str.to_re "bbb") (str.to_re "cc"))) (re.++ (re.+ (re.+ (str.to_re "ddd"))) (re.++ (re.* (re.+ (str.to_re "eee"))) (re.++ (re.* (re.+ (str.to_re "fff"))) (re.++ (re.+ (re.+ (str.to_re "ggg"))) (re.++ (re.* (re.+ (str.to_re "hhh"))) (re.++ (re.+ (re.* (str.to_re "ii"))) (re.++ (re.union (re.union (str.to_re "jjj") (str.to_re "kk")) (re.union (str.to_re "ll") (str.to_re "mmm"))) (re.++ (re.union (re.* (str.to_re "nnn")) (re.* (str.to_re "oo"))) (re.++ (re.* (re.union (str.to_re "p") (str.to_re "q"))) (re.++ (re.* (re.* (str.to_re "r"))) (re.++ (re.* (re.* (str.to_re "sss"))) (re.++ (re.union (re.union (str.to_re "t") (str.to_re "uu")) (re.union (str.to_re "v") (str.to_re "w"))) (re.++ (re.union (re.+ (str.to_re "xxx")) (re.+ (str.to_re "y"))) (re.++ (re.* (re.union (str.to_re "zzz") (str.to_re "AAA"))) (re.++ (re.* (re.+ (str.to_re "BBB"))) (re.++ (re.union (re.union (str.to_re "CCC") (str.to_re "DDD")) (re.union (str.to_re "EEE") (str.to_re "FF"))) (re.++ (re.* (re.* (str.to_re "GGG"))) (re.++ (re.+ (re.union (str.to_re "HHH") (str.to_re "I"))) (re.++ (re.union (re.* (str.to_re "J")) (re.* (str.to_re "KKK"))) (re.++ (re.union (re.+ (str.to_re "L")) (re.+ (str.to_re "MM"))) (re.++ (re.+ (re.union (str.to_re "N") (str.to_re "OO"))) (re.++ (re.* (re.* (str.to_re "P"))) (re.++ (re.* (re.* (str.to_re "Q"))) (re.++ (re.union (re.union (str.to_re "R") (str.to_re "SSS")) (re.union (str.to_re "T") (str.to_re "UUU"))) (re.++ (re.+ (re.+ (str.to_re "V"))) (re.++ (re.union (re.* (str.to_re "WW")) (re.* (str.to_re "XX"))) (re.++ (re.* (re.+ (str.to_re "Y"))) (re.++ (re.* (re.* (str.to_re "ZZ"))) (re.++ (re.union (re.+ (str.to_re "!!")) (re.+ (str.to_re """"""))) (re.++ (re.* (re.+ (str.to_re "##"))) (re.++ (re.+ (re.union (str.to_re "$$") (str.to_re "%%%"))) (re.++ (re.+ (re.union (str.to_re "&&") (str.to_re "'"))) (re.++ (re.union (re.union (str.to_re "(") (str.to_re ")))")) (re.union (str.to_re "***") (str.to_re "+"))) (re.++ (re.+ (re.+ (str.to_re ","))) (re.++ (re.+ (re.union (str.to_re "-") (str.to_re "."))) (re.++ (re.union (re.union (str.to_re "/") (str.to_re ":")) (re.union (str.to_re ";;;") (str.to_re "<"))) (re.++ (re.* (re.union (str.to_re "==") (str.to_re ">>"))) (re.++ (re.union (re.+ (str.to_re "?")) (re.+ (str.to_re "@@@"))) (re.++ (re.+ (re.union (str.to_re "[[") (str.to_re "\\"))) (re.++ (re.+ (re.union (str.to_re "]]]") (str.to_re "^^"))) (re.++ (re.* (re.+ (str.to_re "___"))) (re.++ (re.union (re.+ (str.to_re "```")) (re.+ (str.to_re "{{"))) (re.++ (re.* (re.+ (str.to_re "||"))) (re.++ (re.+ (re.* (str.to_re "}}"))) (re.++ (re.+ (re.union (str.to_re "~") (str.to_re "00"))) (re.++ (re.union (re.* (str.to_re "1")) (re.* (str.to_re "22"))) (re.++ (re.+ (re.union (str.to_re "33") (str.to_re "444"))) (re.++ (re.+ (re.union (str.to_re "55") (str.to_re "66"))) (re.++ (re.+ (re.union (str.to_re "777") (str.to_re "888"))) (re.++ (re.* (re.* (str.to_re "9"))) (re.++ (re.* (re.* (str.to_re "aaa"))) (re.++ (re.union (re.+ (str.to_re "bb")) (re.+ (str.to_re "ccc"))) (re.++ (re.union (re.* (str.to_re "d")) (re.* (str.to_re "e"))) (re.++ (re.+ (re.union (str.to_re "ff") (str.to_re "g"))) (re.++ (re.union (re.* (str.to_re "hhh")) (re.* (str.to_re "ii"))) (re.++ (re.union (re.union (str.to_re "j") (str.to_re "kk")) (re.union (str.to_re "l") (str.to_re "mmm"))) (re.++ (re.union (re.union (str.to_re "nnn") (str.to_re "oo")) (re.union (str.to_re "ppp") (str.to_re "q"))) (re.++ (re.union (re.union (str.to_re "rr") (str.to_re "sss")) (re.union (str.to_re "tt") (str.to_re "u"))) (re.++ (re.+ (re.* (str.to_re "vv"))) (re.++ (re.+ (re.* (str.to_re "w"))) (re.++ (re.union (re.+ (str.to_re "xxx")) (re.+ (str.to_re "yy"))) (re.++ (re.* (re.+ (str.to_re "z"))) (re.++ (re.+ (re.+ (str.to_re "AA"))) (re.++ (re.* (re.* (str.to_re "B"))) (re.++ (re.union (re.+ (str.to_re "CCC")) (re.+ (str.to_re "DD"))) (re.++ (re.* (re.union (str.to_re "EE") (str.to_re "F"))) (re.++ (re.+ (re.union (str.to_re "GG") (str.to_re "HH"))) (re.++ (re.+ (re.union (str.to_re "III") (str.to_re "J"))) (re.++ (re.union (re.* (str.to_re "K")) (re.* (str.to_re "LLL"))) (re.++ (re.+ (re.* (str.to_re "MM"))) (re.++ (re.union (re.* (str.to_re "NN")) (re.* (str.to_re "OOO"))) (re.++ (re.union (re.union (str.to_re "PP") (str.to_re "Q")) (re.union (str.to_re "RR") (str.to_re "SS"))) (re.++ (re.+ (re.+ (str.to_re "T"))) (re.++ (re.+ (re.* (str.to_re "UUU"))) (re.++ (re.union (re.+ (str.to_re "V")) (re.+ (str.to_re "W"))) (re.++ (re.union (re.* (str.to_re "XX")) (re.* (str.to_re "Y"))) (re.++ (re.union (re.* (str.to_re "ZZ")) (re.* (str.to_re "!!!"))) (re.++ (re.union (re.union (str.to_re """""") (str.to_re "###")) (re.union (str.to_re "$") (str.to_re "%"))) (re.++ (re.* (re.union (str.to_re "&&") (str.to_re "'''"))) (re.++ (re.* (re.+ (str.to_re "((("))) (re.++ (re.* (re.union (str.to_re ")))") (str.to_re "**"))) (re.++ (re.* (re.union (str.to_re "+") (str.to_re ",,"))) (re.++ (re.* (re.+ (str.to_re "-"))) (re.++ (re.+ (re.+ (str.to_re "..."))) (re.++ (re.+ (re.* (str.to_re "//"))) (re.++ (re.+ (re.union (str.to_re ":::") (str.to_re ";;"))) (re.++ (re.* (re.+ (str.to_re "<"))) (re.++ (re.union (re.+ (str.to_re "=")) (re.+ (str.to_re ">>"))) (re.++ (re.union (re.union (str.to_re "?") (str.to_re "@")) (re.union (str.to_re "[") (str.to_re "\\\\\\"))) (re.++ (re.union (re.union (str.to_re "]]]") (str.to_re "^^^")) (re.union (str.to_re "___") (str.to_re "```"))) (re.+ (re.+ (str.to_re "{"))))))))))))))))))))))))))))))))))))))))))))))))))))))))))))))))))))))))))))))))))))))))))))))))))))
(assert (not (str.in_re var0 (re.++ (re.union (re.+ (str.to_re "00")) (re.+ (str.to_re "111"))) (re.++ (re.union (re.+ (str.to_re "2")) (re.+ (str.to_re "3"))) (re.++ (re.* (re.+ (str.to_re "4"))) (re.++ (re.* (re.* (str.to_re "55"))) (re.++ (re.* (re.union (str.to_re "66") (str.to_re "777"))) (re.++ (re.+ (re.+ (str.to_re "888"))) (re.++ (re.* (re.+ (str.to_re "999"))) (re.++ (re.* (re.union (str.to_re "aaa") (str.to_re "bb"))) (re.++ (re.+ (re.+ (str.to_re "cc"))) (re.++ (re.+ (re.* (str.to_re "dd"))) (re.++ (re.union (re.union (str.to_re "ee") (str.to_re "ff")) (re.union (str.to_re "ggg") (str.to_re "h"))) (re.++ (re.union (re.* (str.to_re "iii")) (re.* (str.to_re "jjj"))) (re.++ (re.union (re.+ (str.to_re "k")) (re.+ (str.to_re "l"))) (re.++ (re.+ (re.union (str.to_re "mmm") (str.to_re "nn"))) (re.++ (re.+ (re.union (str.to_re "oo") (str.to_re "pp"))) (re.++ (re.+ (re.* (str.to_re "qqq"))) (re.++ (re.union (re.+ (str.to_re "r")) (re.+ (str.to_re "ss"))) (re.++ (re.+ (re.union (str.to_re "ttt") (str.to_re "uu"))) (re.++ (re.+ (re.+ (str.to_re "v"))) (re.++ (re.* (re.* (str.to_re "w"))) (re.++ (re.* (re.+ (str.to_re "x"))) (re.++ (re.* (re.* (str.to_re "y"))) (re.++ (re.+ (re.union (str.to_re "zzz") (str.to_re "AAA"))) (re.++ (re.+ (re.+ (str.to_re "BBB"))) (re.++ (re.* (re.union (str.to_re "C") (str.to_re "DD"))) (re.++ (re.+ (re.+ (str.to_re "EEE"))) (re.++ (re.+ (re.union (str.to_re "FF") (str.to_re "G"))) (re.++ (re.union (re.* (str.to_re "H")) (re.* (str.to_re "I"))) (re.++ (re.* (re.* (str.to_re "J"))) (re.++ (re.+ (re.* (str.to_re "KKK"))) (re.++ (re.union (re.+ (str.to_re "LL")) (re.+ (str.to_re "MMM"))) (re.++ (re.+ (re.+ (str.to_re "N"))) (re.++ (re.* (re.union (str.to_re "OOO") (str.to_re "P"))) (re.++ (re.union (re.union (str.to_re "Q") (str.to_re "RR")) (re.union (str.to_re "SS") (str.to_re "TTT"))) (re.++ (re.union (re.+ (str.to_re "UUU")) (re.+ (str.to_re "V"))) (re.++ (re.+ (re.* (str.to_re "WW"))) (re.++ (re.+ (re.+ (str.to_re "XXX"))) (re.++ (re.* (re.* (str.to_re "YYY"))) (re.++ (re.+ (re.+ (str.to_re "Z"))) (re.++ (re.union (re.* (str.to_re "!!")) (re.* (str.to_re """"""))) (re.++ (re.* (re.* (str.to_re "###"))) (re.++ (re.+ (re.* (str.to_re "$$$"))) (re.++ (re.* (re.union (str.to_re "%") (str.to_re "&&"))) (re.++ (re.* (re.+ (str.to_re "'''"))) (re.++ (re.union (re.+ (str.to_re "(((")) (re.+ (str.to_re ")"))) (re.++ (re.* (re.union (str.to_re "*") (str.to_re "++"))) (re.++ (re.* (re.union (str.to_re ",,") (str.to_re "---"))) (re.++ (re.* (re.union (str.to_re ".") (str.to_re "//"))) (re.++ (re.union (re.union (str.to_re ":::") (str.to_re ";;;")) (re.union (str.to_re "<") (str.to_re "=="))) (re.++ (re.* (re.union (str.to_re ">") (str.to_re "??"))) (re.++ (re.* (re.+ (str.to_re "@@@"))) (re.++ (re.+ (re.* (str.to_re "[[["))) (re.++ (re.union (re.* (str.to_re "\\\\\\")) (re.* (str.to_re "]"))) (re.++ (re.* (re.+ (str.to_re "^^"))) (re.++ (re.* (re.* (str.to_re "__"))) (re.++ (re.* (re.union (str.to_re "`") (str.to_re "{{{"))) (re.++ (re.union (re.+ (str.to_re "|||")) (re.+ (str.to_re "}"))) (re.++ (re.+ (re.* (str.to_re "~~"))) (re.++ (re.* (re.union (str.to_re "000") (str.to_re "11"))) (re.++ (re.+ (re.* (str.to_re "22"))) (re.++ (re.* (re.union (str.to_re "333") (str.to_re "44"))) (re.++ (re.* (re.union (str.to_re "55") (str.to_re "666"))) (re.++ (re.union (re.union (str.to_re "7") (str.to_re "8")) (re.union (str.to_re "999") (str.to_re "aaa"))) (re.++ (re.+ (re.+ (str.to_re "b"))) (re.++ (re.* (re.union (str.to_re "c") (str.to_re "d"))) (re.++ (re.+ (re.* (str.to_re "ee"))) (re.++ (re.* (re.* (str.to_re "f"))) (re.++ (re.* (re.union (str.to_re "ggg") (str.to_re "hh"))) (re.++ (re.* (re.* (str.to_re "iii"))) (re.++ (re.* (re.union (str.to_re "jjj") (str.to_re "k"))) (re.++ (re.+ (re.+ (str.to_re "ll"))) (re.++ (re.union (re.+ (str.to_re "mm")) (re.+ (str.to_re "n"))) (re.++ (re.+ (re.union (str.to_re "ooo") (str.to_re "p"))) (re.++ (re.* (re.+ (str.to_re "qq"))) (re.++ (re.* (re.* (str.to_re "rr"))) (re.++ (re.* (re.union (str.to_re "sss") (str.to_re "ttt"))) (re.++ (re.+ (re.* (str.to_re "uu"))) (re.++ (re.+ (re.union (str.to_re "v") (str.to_re "www"))) (re.++ (re.union (re.* (str.to_re "xxx")) (re.* (str.to_re "yy"))) (re.++ (re.* (re.* (str.to_re "z"))) (re.++ (re.+ (re.union (str.to_re "AA") (str.to_re "BB"))) (re.++ (re.union (re.union (str.to_re "CCC") (str.to_re "D")) (re.union (str.to_re "EEE") (str.to_re "FFF"))) (re.++ (re.* (re.* (str.to_re "GGG"))) (re.++ (re.* (re.* (str.to_re "HHH"))) (re.++ (re.+ (re.union (str.to_re "I") (str.to_re "J"))) (re.++ (re.+ (re.union (str.to_re "KKK") (str.to_re "LLL"))) (re.++ (re.union (re.+ (str.to_re "M")) (re.+ (str.to_re "NNN"))) (re.++ (re.union (re.* (str.to_re "OO")) (re.* (str.to_re "PPP"))) (re.++ (re.+ (re.union (str.to_re "Q") (str.to_re "RRR"))) (re.++ (re.union (re.+ (str.to_re "S")) (re.+ (str.to_re "TT"))) (re.++ (re.+ (re.* (str.to_re "UU"))) (re.++ (re.+ (re.* (str.to_re "VVV"))) (re.++ (re.+ (re.union (str.to_re "W") (str.to_re "XXX"))) (re.++ (re.union (re.* (str.to_re "YYY")) (re.* (str.to_re "ZZ"))) (re.++ (re.* (re.+ (str.to_re "!!"))) (re.+ (re.* (str.to_re """""")))))))))))))))))))))))))))))))))))))))))))))))))))))))))))))))))))))))))))))))))))))))))))))))))))))
(check-sat)